(set-info :smt-lib-version 2.6)
(set-logic QF_LIA)
(set-info :category "industrial")
(set-info :status sat)
(declare-fun x0 () Int)
(declare-fun x1 () Int)
(declare-fun x10 () Int)
(declare-fun x11 () Int)
(declare-fun x12 () Int)
(declare-fun x13 () Int)
(declare-fun x14 () Int)
(declare-fun x15 () Int)
(declare-fun x16 () Int)
(declare-fun x17 () Int)
(declare-fun x18 () Int)
(declare-fun x19 () Int)
(declare-fun x2 () Int)
(declare-fun x20 () Int)
(declare-fun x21 () Int)
(declare-fun x22 () Int)
(declare-fun x23 () Int)
(declare-fun x24 () Int)
(declare-fun x25 () Int)
(declare-fun x26 () Int)
(declare-fun x27 () Int)
(declare-fun x28 () Int)
(declare-fun x29 () Int)
(declare-fun x3 () Int)
(declare-fun x30 () Int)
(declare-fun x31 () Int)
(declare-fun x32 () Int)
(declare-fun x33 () Int)
(declare-fun x34 () Int)
(declare-fun x4 () Int)
(declare-fun x5 () Int)
(declare-fun x6 () Int)
(declare-fun x7 () Int)
(declare-fun x8 () Int)
(declare-fun x9 () Int)
(assert (let ((?v_13 (* 0 x0)) (?v_32 (* 1 x16)) (?v_16 (* 0 x13)) (?v_8 (* 0 x17)) (?v_0 (* 0 x2)) (?v_34 (* 0 x20)) (?v_3 (* 1 x21)) (?v_4 (* 1 x22)) (?v_18 (* 0 x26)) (?v_27 (* 0 x28)) (?v_42 (* 0 x30)) (?v_36 (* 0 x31)) (?v_29 (* 0 x6)) (?v_2 (* 0 x8)) (?v_5 (* 0 x1)) (?v_14 (* 0 x11)) (?v_10 (* 0 x19)) (?v_80 (* 0 x29)) (?v_41 (* 0 x3)) (?v_12 (* 1 x15)) (?v_33 (* 0 x18)) (?v_17 (* 1 x25)) (?v_44 (* 1 x26)) (?v_30 (* 1 x27)) (?v_22 (* 1 x14)) (?v_35 (* 0 x22)) (?v_71 (* 0 x23)) (?v_31 (* 1 x32)) (?v_19 (* 1 x3)) (?v_20 (* 0 x5)) (?v_49 (* 2 x6)) (?v_38 (* 0 x7)) (?v_85 (* 1 x1)) (?v_26 (* 0 x15)) (?v_40 (* 0 x24)) (?v_28 (* 0 x33)) (?v_89 (* 1 x20)) (?v_43 (* 0 x4)) (?v_37 (* 1 x30)) (?v_87 (* 1 x31)) (?v_60 (* 1 x8)) (?v_104 (* 1 x17)) (?v_48 (* 1 x29)) (?v_100 (* 1 x4)) (?v_75 (* 1 x5)) (?v_105 (* 1 x6)) (?v_108 (* 1 x9))) (let ((?v_109 (+ ?v_105 (+ ?v_38 ?v_108))) (?v_79 (* 0 x16)) (?v_86 (* 0 x21)) (?v_51 (* 2 x23)) (?v_82 (* 0 x25)) (?v_83 (* 0 x34)) (?v_59 (* 1 x33)) (?v_61 (* 0 x9)) (?v_56 (* 1 x12)) (?v_72 (* 2 x1)) (?v_70 (* 0 x14)) (?v_113 (* 1 x19)) (?v_53 (* 0 x27)) (?v_102 (* 1 x28)) (?v_54 (* 0 x32)) (?v_69 (* 0 x12)) (?v_106 (* 1 x10)) (?v_84 (* 1 x24)) (?v_111 (* 1 x11)) (?v_88 (* 1 x2)) (?v_63 (* 1 x34)) (?v_65 (* 1 x0)) (?v_68 (* 0 x10)) (?v_101 (* 1 x13)) (?v_90 (* 1 x23)) (?v_107 (* 1 x7))) (let ((?v_97 (+ ?v_75 ?v_107)) (?v_96 (* 1 x18)) (?v_114 (* 2 x2)) (?v_24 (* (- 1) x23)) (?v_93 (* (- 1) x24)) (?v_67 (* (- 1) x29)) (?v_45 (* (- 1) x33)) (?v_1 (* (- 1) x5)) (?v_25 (* (- 1) x9)) (?v_21 (* (- 1) x0)) (?v_6 (* (- 1) x10)) (?v_7 (* (- 1) x12)) (?v_23 (* (- 1) x17)) (?v_11 (* (- 1) x20)) (?v_9 (* (- 1) x30)) (?v_110 (* (- 1) x32)) (?v_15 (* (- 1) x6)) (?v_55 (* (- 1) x7)) (?v_64 (* (- 2) x16)) (?v_73 (* (- 2) x2)) (?v_66 (* (- 1) x27)) (?v_46 (* (- 1) x4)) (?v_95 (* (- 1) x8)) (?v_58 (* (- 1) x21)) (?v_47 (* (- 1) x18)) (?v_103 (* (- 1) x11)) (?v_91 (* (- 1) x14)) (?v_39 (* (- 1) x15)) (?v_57 (* (- 1) x19)) (?v_81 (* (- 1) x26)) (?v_52 (* (- 1) x3)) (?v_50 (* (- 1) x2)) (?v_62 (* (- 1) x1)) (?v_78 (* (- 1) x34)) (?v_99 (* (- 2) x14)) (?v_76 (* (- 1) x22)) (?v_77 (* (- 1) x28)) (?v_74 (* (- 1) x25)) (?v_98 (* (- 2) x11)) (?v_94 (* (- 1) x31)) (?v_92 (* (- 1) x16)) (?v_112 (* (- 1) x13))) (and (<= (+ ?v_13 (+ ?v_32 (+ ?v_24 (+ ?v_16 (+ ?v_8 (+ ?v_0 (+ ?v_93 (+ ?v_67 (+ ?v_45 (+ ?v_1 (+ ?v_34 (+ ?v_3 (+ ?v_4 (+ ?v_18 (+ ?v_27 (+ ?v_42 (+ ?v_36 (+ ?v_29 (+ (* (- 2) x7) (+ ?v_2 ?v_25)))))))))))))))))))) (- 1)) (<= (+ ?v_21 (+ ?v_5 (+ ?v_6 (+ ?v_7 (+ ?v_23 (+ ?v_14 (+ ?v_10 (+ ?v_0 (+ ?v_11 (+ ?v_80 (+ ?v_9 (+ ?v_110 (+ ?v_41 (+ ?v_1 (+ ?v_15 (+ ?v_55 (+ ?v_2 (+ ?v_12 (+ ?v_33 (+ ?v_3 (+ ?v_4 (+ ?v_17 (+ ?v_44 (+ ?v_30 (* 2 x34))))))))))))))))))))))))) 0) (<= (+ ?v_64 (+ ?v_5 (+ ?v_6 (+ ?v_7 (+ ?v_22 (+ ?v_8 (+ ?v_35 (+ ?v_71 (+ ?v_9 (+ ?v_31 (+ (* 2 x13) (+ ?v_10 (+ ?v_0 (+ ?v_11 (+ ?v_19 (+ ?v_20 (+ (* 2 x26) (+ ?v_49 (+ ?v_38 (+ ?v_2 ?v_12)))))))))))))))))))) 0) (<= (+ ?v_13 (+ ?v_85 (+ ?v_73 (+ (* (- 2) x9) (+ ?v_6 (+ ?v_14 (+ ?v_66 (+ ?v_46 (+ ?v_15 (+ ?v_95 (+ ?v_16 (+ ?v_26 (+ ?v_8 (+ ?v_10 (+ ?v_40 (+ ?v_17 (+ ?v_18 (+ ?v_28 (+ (* 2 x29) (+ ?v_19 (+ ?v_20 ?v_89))))))))))))))))))))) (- 1)) (<= (+ ?v_21 (+ ?v_6 (+ ?v_22 (+ ?v_23 (+ ?v_58 (+ ?v_24 (+ ?v_25 (+ ?v_26 (+ ?v_47 (+ ?v_27 (+ ?v_28 (+ ?v_43 (+ ?v_29 (+ ?v_30 (+ ?v_37 (+ ?v_87 (+ ?v_31 ?v_60))))))))))))))))) 1) (<= (+ ?v_13 (+ ?v_103 (+ ?v_91 (+ ?v_39 (+ ?v_32 (+ ?v_104 (+ ?v_57 (+ ?v_24 (+ ?v_81 (+ ?v_52 (+ ?v_33 (+ ?v_34 (+ ?v_35 (+ ?v_36 (+ ?v_28 (+ ?v_2 (+ ?v_48 (+ ?v_37 (+ ?v_100 (+ ?v_75 ?v_109)))))))))))))))))))) 0) (<= (+ ?v_5 (+ ?v_16 (+ ?v_39 (+ ?v_79 (+ ?v_50 (+ ?v_11 (+ ?v_86 (+ ?v_35 (+ ?v_51 (+ ?v_40 (+ ?v_82 (+ ?v_27 (+ ?v_41 (+ ?v_42 (+ ?v_83 (+ ?v_43 (+ ?v_20 (+ ?v_2 (+ ?v_44 (+ ?v_30 (+ ?v_31 (+ ?v_59 ?v_61)))))))))))))))))))))) 0) (<= (+ ?v_13 (+ ?v_56 (+ ?v_24 (+ ?v_45 (+ ?v_14 (+ ?v_46 (+ ?v_72 (+ ?v_16 (+ ?v_70 (+ ?v_47 (+ ?v_113 (+ ?v_0 (+ ?v_4 (+ ?v_40 (+ ?v_53 (+ ?v_102 (+ ?v_48 (+ ?v_41 (+ ?v_42 (+ ?v_54 (+ ?v_2 (+ ?v_49 ?v_25)))))))))))))))))))))) 1) (<= (+ ?v_62 (+ ?v_69 (+ ?v_23 (+ ?v_14 (+ ?v_50 (+ ?v_51 (+ ?v_52 (+ ?v_45 (+ ?v_78 (+ ?v_18 (+ ?v_53 (+ ?v_48 (+ ?v_42 (+ ?v_54 (+ ?v_43 (+ ?v_20 (+ ?v_55 (+ ?v_106 (+ ?v_84 ?v_49))))))))))))))))))) (- 1)) (<= (+ ?v_13 (+ ?v_23 (+ ?v_111 (+ ?v_56 (+ ?v_57 (+ ?v_88 (+ ?v_11 (+ ?v_58 (+ ?v_4 (+ ?v_46 (+ ?v_17 (+ ?v_53 (+ ?v_27 (+ ?v_48 (+ ?v_59 (+ ?v_63 (+ ?v_20 (+ ?v_29 (+ ?v_55 (+ ?v_60 (+ ?v_61 ?v_12))))))))))))))))))))) (- 1)) (<= (+ ?v_99 (+ ?v_65 (+ ?v_62 (+ ?v_76 (+ ?v_77 (+ ?v_52 (+ ?v_46 (+ ?v_68 (+ ?v_56 (+ ?v_101 (+ ?v_26 (+ (* 2 x16) (+ ?v_0 (+ ?v_34 (+ ?v_42 (+ ?v_36 (+ ?v_28 (+ ?v_29 (+ ?v_17 (+ ?v_48 (+ ?v_31 (+ ?v_63 ?v_61)))))))))))))))))))))) (- 1)) (<= (+ ?v_64 (+ ?v_65 (+ ?v_62 (+ ?v_39 (+ ?v_11 (+ ?v_74 (+ ?v_66 (+ ?v_67 (+ ?v_68 (+ ?v_69 (+ ?v_70 (+ ?v_33 (+ ?v_10 (+ ?v_4 (+ ?v_71 (+ ?v_29 (+ ?v_19 (+ ?v_37 (+ ?v_63 ?v_38))))))))))))))))))) 1) (<= (+ ?v_98 (+ ?v_70 (+ ?v_72 (+ ?v_16 (+ (* (- 2) x19) (+ ?v_73 (+ ?v_11 (+ ?v_74 (+ ?v_15 (+ ?v_68 (+ ?v_26 (+ ?v_32 (+ ?v_8 (+ ?v_33 (+ ?v_4 (+ ?v_90 (+ ?v_18 (+ ?v_28 (+ ?v_48 (+ ?v_37 (+ (* 2 x28) ?v_97))))))))))))))))))))) 0) (<= (+ ?v_13 (+ ?v_39 (+ ?v_11 (+ ?v_58 (+ ?v_76 (+ ?v_77 (+ ?v_9 (+ ?v_94 (+ ?v_45 (+ ?v_78 (+ ?v_68 (+ ?v_69 (+ ?v_16 (+ ?v_70 (+ ?v_79 (+ ?v_33 (+ ?v_10 (+ ?v_0 (+ ?v_80 (+ ?v_20 ?v_29)))))))))))))))))))) 0) (<= (+ ?v_39 (+ ?v_81 (+ ?v_1 (+ ?v_25 (+ ?v_68 (+ ?v_56 (+ ?v_16 (+ ?v_70 (+ ?v_8 (+ ?v_33 (+ ?v_10 (+ ?v_3 (+ ?v_35 (+ ?v_71 (+ ?v_82 (+ ?v_42 (+ ?v_36 (+ ?v_54 (+ ?v_83 (+ ?v_29 (+ ?v_84 (+ ?v_19 (+ ?v_59 ?v_38))))))))))))))))))))))) (- 1)) (<= (+ ?v_92 (+ (* (- 2) x6) (+ ?v_85 (+ ?v_50 (+ ?v_68 (+ ?v_14 (+ ?v_56 (+ ?v_8 (+ ?v_86 (+ ?v_82 (+ ?v_53 (+ ?v_41 (+ ?v_54 (+ ?v_28 (+ ?v_83 (+ ?v_43 (+ ?v_2 (+ ?v_84 (+ ?v_48 (+ ?v_37 (+ ?v_87 (+ ?v_75 (* 2 x18))))))))))))))))))))))) 0) (<= (+ ?v_21 (+ ?v_70 (+ ?v_8 (+ ?v_86 (+ ?v_35 (+ ?v_72 (+ ?v_57 (+ ?v_81 (+ ?v_77 (+ ?v_68 (+ ?v_54 (+ ?v_29 (+ ?v_2 (+ ?v_96 (+ ?v_88 (+ ?v_89 (+ ?v_90 (+ ?v_84 (+ ?v_17 (+ ?v_48 (+ ?v_19 ?v_87))))))))))))))))))))) 0) (<= (+ ?v_91 (+ ?v_92 (+ ?v_13 (+ ?v_93 (+ ?v_94 (+ ?v_15 (+ ?v_95 (+ ?v_68 (+ ?v_14 (+ ?v_35 (+ ?v_71 (+ ?v_27 (+ ?v_42 (+ ?v_28 (+ ?v_96 (+ ?v_88 (+ ?v_17 (+ ?v_30 (+ ?v_31 ?v_97))))))))))))))))))) 0) (<= (+ ?v_13 (+ ?v_98 (+ ?v_99 (+ ?v_69 (+ ?v_72 (+ ?v_16 (+ ?v_81 (+ ?v_67 (+ ?v_78 (+ ?v_46 (+ ?v_26 (+ ?v_33 (+ ?v_0 (+ ?v_3 (+ ?v_4 (+ ?v_71 (+ ?v_82 (+ ?v_53 (+ ?v_27 (+ ?v_41 (+ ?v_87 (+ ?v_31 ?v_29)))))))))))))))))))))) 0) (<= (+ ?v_13 (+ (* (- 2) x12) (+ ?v_5 (+ ?v_112 (+ ?v_76 (+ ?v_32 (+ ?v_8 (+ ?v_93 (+ ?v_26 (+ ?v_33 (+ ?v_41 (+ ?v_28 (+ ?v_20 (+ ?v_88 (+ ?v_17 (+ ?v_44 (+ ?v_30 (+ (* 2 x30) (+ ?v_100 (+ ?v_38 (+ ?v_60 ?v_61))))))))))))))))))))) 0) (<= (+ ?v_5 (+ ?v_14 (+ ?v_69 (+ ?v_79 (+ ?v_101 (+ ?v_57 (+ ?v_95 (+ ?v_26 (+ ?v_33 (+ ?v_88 (+ ?v_34 (+ ?v_82 (+ ?v_53 (+ ?v_41 (+ ?v_36 (+ ?v_54 (+ ?v_28 (+ ?v_43 (+ ?v_84 (+ ?v_44 (+ ?v_102 (+ (* 4 x34) ?v_61)))))))))))))))))))))) 1) (<= (+ ?v_99 (+ ?v_65 (+ ?v_103 (+ ?v_101 (+ ?v_26 (+ ?v_79 (+ ?v_71 (+ ?v_104 (+ ?v_82 (+ (* 2 x19) (+ ?v_18 (+ ?v_42 (+ ?v_36 (+ ?v_59 (+ ?v_20 (+ ?v_2 (+ ?v_88 (+ ?v_105 (+ ?v_61 ?v_106))))))))))))))))))) 1) (<= (+ ?v_91 (+ ?v_76 (+ ?v_14 (+ ?v_56 (+ ?v_16 (+ ?v_81 (+ ?v_77 (+ ?v_67 (+ ?v_26 (+ ?v_79 (+ ?v_8 (+ ?v_0 (+ ?v_53 (+ ?v_42 (+ ?v_36 (+ ?v_83 (+ ?v_96 (+ ?v_59 (+ ?v_105 (+ ?v_107 ?v_108)))))))))))))))))))) 1) (<= (+ ?v_103 (+ ?v_69 (+ ?v_79 (+ ?v_23 (+ ?v_24 (+ ?v_67 (+ ?v_46 (+ ?v_85 (+ ?v_25 (+ ?v_33 (+ ?v_10 (+ ?v_86 (+ ?v_18 (+ ?v_87 (+ ?v_28 (+ ?v_83 (+ ?v_29 (+ ?v_2 (+ (* 2 x27) ?v_38))))))))))))))))))) 0) (<= (+ ?v_79 (+ (* (- 2) x23) (+ ?v_95 (+ ?v_104 (+ ?v_10 (+ ?v_0 (+ ?v_3 (+ ?v_35 (+ ?v_40 (+ ?v_80 (+ ?v_41 (+ ?v_36 (+ ?v_28 (+ ?v_43 (+ ?v_44 (+ ?v_30 (+ ?v_37 (+ ?v_63 ?v_109)))))))))))))))))) 1) (<= (+ (* 2 x0) (+ ?v_67 (+ ?v_9 (+ ?v_110 (+ ?v_85 (+ ?v_26 (+ ?v_10 (+ ?v_0 (+ ?v_34 (+ ?v_35 (+ ?v_36 (+ ?v_83 (+ ?v_43 (+ ?v_106 (+ ?v_111 (+ ?v_22 (+ ?v_104 (+ ?v_33 (+ ?v_3 (+ ?v_17 (+ ?v_102 (+ ?v_19 (* 2 x24))))))))))))))))))))))) 1) (<= (+ ?v_5 (+ ?v_112 (+ ?v_70 (+ ?v_92 (+ ?v_77 (+ ?v_25 (+ ?v_26 (+ ?v_34 (+ ?v_35 (+ ?v_71 (+ ?v_18 (+ ?v_36 (+ ?v_106 (+ ?v_111 (+ ?v_104 (+ ?v_33 (+ ?v_113 (+ ?v_3 (+ ?v_48 (+ ?v_19 (+ ?v_63 (+ ?v_100 (+ ?v_107 ?v_60))))))))))))))))))))))) 0) (<= (+ ?v_103 (+ ?v_5 (+ ?v_112 (+ ?v_39 (+ ?v_67 (+ ?v_1 (+ ?v_34 (+ ?v_40 (+ ?v_18 (+ ?v_27 (+ ?v_41 (+ ?v_42 (+ ?v_61 (+ ?v_106 (+ ?v_104 (+ ?v_96 (+ ?v_113 (+ ?v_88 (+ ?v_17 (+ ?v_30 (+ ?v_100 ?v_107))))))))))))))))))))) (- 1)) (<= (+ ?v_62 (+ ?v_103 (+ ?v_112 (+ ?v_70 (+ ?v_81 (+ ?v_78 (+ ?v_15 (+ ?v_26 (+ ?v_79 (+ ?v_8 (+ ?v_0 (+ ?v_27 (+ ?v_42 (+ ?v_36 (+ ?v_28 (+ ?v_106 (+ ?v_47 (+ ?v_84 (+ ?v_19 (+ (* 2 x32) (+ ?v_100 ?v_108))))))))))))))))))))) 0) (<= (+ ?v_64 (+ ?v_21 (+ ?v_5 (+ ?v_8 (+ (* (- 3) x27) (+ ?v_106 (+ ?v_47 (+ ?v_57 (+ ?v_78 (+ ?v_0 (+ ?v_34 (+ ?v_3 (+ ?v_4 (+ ?v_71 (+ ?v_40 (+ ?v_82 (+ ?v_42 (+ ?v_28 (+ ?v_29 (+ ?v_102 (+ ?v_41 (+ ?v_87 (+ ?v_61 ?v_107))))))))))))))))))))))) 1) (<= (+ ?v_21 (+ ?v_62 (+ ?v_69 (+ ?v_70 (+ ?v_57 (+ ?v_24 (+ ?v_55 (+ ?v_95 (+ ?v_26 (+ ?v_32 (+ ?v_34 (+ ?v_35 (+ ?v_82 (+ ?v_53 (+ ?v_54 (+ ?v_28 (+ ?v_61 (+ ?v_106 (+ ?v_101 (+ ?v_47 (+ ?v_44 ?v_37))))))))))))))))))))) 1) (<= (+ ?v_14 (+ ?v_69 (+ ?v_112 (+ ?v_76 (+ ?v_79 (+ ?v_8 (+ ?v_74 (+ ?v_67 (+ ?v_9 (+ ?v_95 (+ ?v_26 (+ ?v_34 (+ ?v_53 (+ ?v_27 (+ ?v_28 (+ ?v_61 (+ ?v_106 (+ ?v_47 (+ ?v_3 (+ ?v_90 (+ ?v_44 (+ ?v_19 (+ ?v_87 ?v_105))))))))))))))))))))))) (- 1)) (<= (+ ?v_99 (+ ?v_103 (+ (* (- 2) x29) (+ ?v_74 (+ ?v_66 (+ ?v_77 (+ ?v_94 (+ ?v_16 (+ ?v_8 (+ ?v_86 (+ ?v_71 (+ ?v_41 (+ ?v_42 (+ ?v_83 (+ ?v_43 (+ ?v_12 (+ ?v_32 (+ ?v_44 (+ ?v_31 (+ ?v_114 (+ (* 2 x22) ?v_84))))))))))))))))))))) 1) (<= (+ ?v_13 (+ ?v_7 (+ ?v_74 (+ ?v_9 (+ ?v_5 (+ ?v_66 (+ ?v_10 (+ ?v_34 (+ ?v_40 (+ ?v_18 (+ ?v_41 (+ ?v_36 (+ ?v_54 (+ ?v_12 (+ ?v_96 (+ ?v_59 (+ ?v_75 (+ ?v_114 (+ (* 2 x4) (* 2 x9)))))))))))))))))))) 0) (<= (+ ?v_5 (+ ?v_70 (+ ?v_79 (+ ?v_56 (+ (* 3 x13) (+ ?v_57 (+ ?v_94 (+ ?v_0 (+ ?v_86 (+ ?v_40 (+ ?v_18 (+ ?v_27 (+ ?v_42 (+ ?v_28 (+ ?v_83 (+ ?v_30 (+ ?v_48 (+ ?v_20 (+ ?v_96 (+ ?v_108 (* 2 x7))))))))))))))))))))) 0))))))
(check-sat)
(exit)
